52	0

0	2	2	3
1	1	4
6	1	4
2	1	5
1	2	6	7
8	1	8
7	1	8
1	1	9
1	2	10	11
2	2	12	14
3	2	12	14
1	2	13	17
7	1	15
2	2	15	17
1	2	16	19
6	2	18	21
10	2	18	19
10	2	20	24
6	2	20	21
4	1	22
8	2	22	24
3	1	23
3	2	25	26
10	2	26	28
6	2	27	28
7	1	27
1	1	29
3	1	29
1	2	30	32
5	1	31
5	2	33	35
10	2	33	35
5	2	34	37
6	2	36	38
6	2	36	37
10	1	39
6	1	38
7	1	39
1	2	40	41
1	1	42
7	2	43	44
6	2	43	44
8	1	46
2	1	45
3	2	46	47
7	1	48
8	1	48
5	2	49	50
5	1	51
4	1	51
1	1	52
0	0
